<number of tasks>
70

<cycle time>
364

<task times>
1 17
2 66
3 54
4 52
5 6
6 88
7 21
8 128
9 68
10 70
11 85
12 21
13 134
14 135
15 94
16 90
17 50
18 143
19 19
20 54
21 50
22 40
23 73
24 12
25 152
26 42
27 45
28 74
29 26
30 11
31 31
32 50
33 102
34 46
35 35
36 40
37 2
38 1
39 3
40 13
41 16
42 25
43 21
44 43
45 30
46 83
47 89
48 56
49 59
50 43
51 11
52 26
53 44
54 121
55 38
56 68
57 22
58 7
59 16
60 32
61 25
62 27
63 156
64 28
65 15
66 26
67 18
68 72
69 23
70 27

<precedence relations>
1,2
1,41
1,69
1,70
2,3
3,4
3,68
4,6
4,7
5,6
5,24
5,30
6,8
7,8
8,12
9,10
10,11
11,12
12,13
12,14
13,23
14,23
15,16
16,17
16,18
17,19
18,19
19,20
19,22
19,57
20,21
21,23
22,23
23,25
23,31
23,33
24,25
25,26
25,27
25,28
25,29
26,35
27,35
28,35
29,35
30,31
31,32
32,35
33,34
34,35
35,36
35,44
35,48
35,51
35,53
35,56
35,60
35,61
35,62
36,37
37,38
38,39
39,40
40,42
41,42
42,43
43,50
44,45
45,46
46,47
47,50
48,49
49,50
51,52
52,54
53,54
54,55
57,58
58,59
59,60
61,65
62,63
63,64
64,65
64,66
64,67

<setup times forward>
1,10:20
1,11:20
1,16:20
1,17:8
1,18:8
1,19:8
1,20:7
1,21:5
1,22:7
1,24:5
1,30:5
1,41:1
1,57:18
1,58:18
1,59:18
1,69:11
1,70:11
2,10:20
2,11:20
2,16:20
2,17:8
2,18:8
2,19:8
2,20:7
2,21:5
2,22:7
2,24:5
2,30:5
2,41:1
2,57:18
2,58:18
2,59:18
2,69:11
2,70:11
3,10:20
3,11:20
3,16:20
3,17:8
3,18:8
3,19:8
3,20:7
3,21:5
3,22:7
3,24:5
3,30:5
3,41:1
3,57:18
3,58:18
3,59:18
3,68:18
3,69:11
3,70:11
4,6:20
4,7:20
4,10:20
4,11:20
4,16:20
4,17:8
4,18:8
4,19:8
4,20:7
4,21:5
4,22:7
4,24:5
4,30:5
4,41:1
4,57:18
4,58:18
4,59:18
4,68:18
4,69:11
4,70:11
5,6:20
5,7:20
5,10:20
5,11:20
5,16:20
5,17:8
5,18:8
5,19:8
5,20:7
5,21:5
5,22:7
5,24:5
5,30:5
5,41:1
5,57:18
5,58:18
5,59:18
5,68:18
5,69:11
5,70:11
6,8:28
6,9:20
6,15:20
6,17:28
6,18:28
6,19:28
6,20:13
6,21:15
6,22:13
6,24:15
6,30:15
6,41:21
6,57:38
6,58:38
6,59:38
6,68:38
6,69:9
6,70:9
7,5:20
7,8:28
7,9:20
7,15:20
7,17:28
7,18:28
7,19:28
7,20:13
7,21:15
7,22:13
7,24:15
7,30:15
7,41:21
7,57:38
7,58:38
7,59:38
7,68:38
7,69:9
7,70:9
8,9:8
8,10:28
8,11:28
8,15:8
8,16:28
8,20:15
8,21:13
8,22:15
8,24:13
8,30:13
8,41:7
8,57:10
8,58:10
8,59:10
8,68:10
8,69:19
8,70:19
9,6:20
9,7:20
9,8:8
9,10:20
9,16:20
9,17:8
9,18:8
9,19:8
9,20:7
9,21:5
9,22:7
9,24:5
9,30:5
9,41:1
9,57:18
9,58:18
9,59:18
9,68:18
9,69:11
9,70:11
10,1:20
10,2:20
10,3:20
10,4:20
10,5:20
10,8:28
10,15:20
10,17:28
10,18:28
10,19:28
10,20:13
10,21:15
10,22:13
10,24:15
10,30:15
10,41:21
10,57:38
10,58:38
10,59:38
10,68:38
10,69:9
10,70:9
11,1:20
11,2:20
11,3:20
11,4:20
11,5:20
11,8:28
11,12:28
11,15:20
11,17:28
11,18:28
11,19:28
11,20:13
11,21:15
11,22:13
11,24:15
11,30:15
11,41:21
11,57:38
11,58:38
11,59:38
11,68:38
11,69:9
11,70:9
12,13:15
12,14:15
12,15:8
12,16:28
12,20:15
12,21:13
12,22:15
12,24:13
12,30:13
12,41:7
12,57:10
12,58:10
12,59:10
12,68:10
12,69:19
12,70:19
13,15:7
13,16:13
13,17:15
13,18:15
13,19:15
13,21:2
13,23:2
13,24:2
13,30:2
13,41:8
13,57:25
13,58:25
13,59:25
13,68:25
13,69:4
13,70:4
14,15:7
14,16:13
14,17:15
14,18:15
14,19:15
14,21:2
14,23:2
14,24:2
14,30:2
14,41:8
14,57:25
14,58:25
14,59:25
14,68:25
14,69:4
14,70:4
15,6:20
15,7:20
15,8:8
15,10:20
15,11:20
15,12:8
15,13:7
15,14:7
15,16:20
15,24:5
15,30:5
15,41:1
15,68:18
15,69:11
15,70:11
16,1:20
16,2:20
16,3:20
16,4:20
16,5:20
16,8:28
16,9:20
16,12:28
16,13:13
16,14:13
16,17:28
16,18:28
16,24:15
16,30:15
16,41:21
16,68:38
16,69:9
16,70:9
17,1:8
17,2:8
17,3:8
17,4:8
17,5:8
17,6:28
17,7:28
17,9:8
17,10:28
17,11:28
17,13:15
17,14:15
17,24:13
17,30:13
17,41:7
17,68:10
17,69:19
17,70:19
18,1:8
18,2:8
18,3:8
18,4:8
18,5:8
18,6:28
18,7:28
18,9:8
18,10:28
18,11:28
18,13:15
18,14:15
18,24:13
18,30:13
18,41:7
18,68:10
18,69:19
18,70:19
19,1:8
19,2:8
19,3:8
19,4:8
19,5:8
19,6:28
19,7:28
19,9:8
19,10:28
19,11:28
19,13:15
19,14:15
19,20:15
19,22:15
19,24:13
19,30:13
19,41:7
19,57:10
19,68:10
19,69:19
19,70:19
20,1:7
20,2:7
20,3:7
20,4:7
20,5:7
20,6:13
20,7:13
20,8:15
20,9:7
20,10:13
20,11:13
20,12:15
20,21:2
20,24:2
20,30:2
20,41:8
20,57:25
20,58:25
20,59:25
20,68:25
20,69:4
20,70:4
21,1:5
21,2:5
21,3:5
21,4:5
21,5:5
21,6:15
21,7:15
21,8:13
21,9:5
21,10:15
21,11:15
21,12:13
21,13:2
21,14:2
21,22:2
21,41:6
21,57:23
21,58:23
21,59:23
21,68:23
21,69:6
21,70:6
22,1:7
22,2:7
22,3:7
22,4:7
22,5:7
22,6:13
22,7:13
22,8:15
22,9:7
22,10:13
22,11:13
22,12:15
22,21:2
22,23:2
22,24:2
22,30:2
22,41:8
22,57:25
22,58:25
22,59:25
22,68:25
22,69:4
22,70:4
23,33:16
23,41:6
23,57:23
23,58:23
23,59:23
23,68:23
23,69:6
23,70:6
24,1:5
24,2:5
24,3:5
24,4:5
24,6:15
24,7:15
24,8:13
24,9:5
24,10:15
24,11:15
24,12:13
24,13:2
24,14:2
24,15:5
24,16:15
24,17:13
24,18:13
24,19:13
24,20:2
24,22:2
24,32:16
24,33:16
24,34:16
24,41:6
24,57:23
24,58:23
24,59:23
24,68:23
24,69:6
24,70:6
25,26:16
25,27:16
25,28:16
25,32:16
25,33:16
25,34:16
25,41:6
25,57:23
25,58:23
25,59:23
25,68:23
25,69:6
25,70:6
26,29:16
26,30:16
26,31:16
26,35:10
26,41:10
26,57:7
26,58:7
26,59:7
26,68:7
26,69:22
26,70:22
27,29:16
27,30:16
27,31:16
27,35:10
27,41:10
27,57:7
27,58:7
27,59:7
27,68:7
27,69:22
27,70:22
28,29:16
28,30:16
28,31:16
28,35:10
28,41:10
28,57:7
28,58:7
28,59:7
28,68:7
28,69:22
28,70:22
29,26:16
29,27:16
29,28:16
29,32:16
29,33:16
29,34:16
29,35:6
29,41:6
29,57:23
29,58:23
29,59:23
29,68:23
29,69:6
29,70:6
30,1:5
30,2:5
30,3:5
30,4:5
30,6:15
30,7:15
30,8:13
30,9:5
30,10:15
30,11:15
30,12:13
30,13:2
30,14:2
30,15:5
30,16:15
30,17:13
30,18:13
30,19:13
30,20:2
30,22:2
30,26:16
30,27:16
30,28:16
30,33:16
30,34:16
30,41:6
30,57:23
30,58:23
30,59:23
30,68:23
30,69:6
30,70:6
31,26:16
31,27:16
31,28:16
31,32:16
31,33:16
31,34:16
31,41:6
31,57:23
31,58:23
31,59:23
31,68:23
31,69:6
31,70:6
32,24:16
32,25:16
32,29:16
32,35:10
32,41:10
32,57:7
32,58:7
32,59:7
32,68:7
32,69:22
32,70:22
33,24:16
33,25:16
33,29:16
33,30:16
33,31:16
33,41:10
33,57:7
33,58:7
33,59:7
33,68:7
33,69:22
33,70:22
34,24:16
34,25:16
34,29:16
34,30:16
34,31:16
34,35:10
34,41:10
34,57:7
34,58:7
34,59:7
34,68:7
34,69:22
34,70:22
35,36:17
35,48:12
35,56:17
35,57:17
35,58:17
35,59:17
35,60:12
35,61:12
35,68:17
35,69:12
35,70:12
36,41:17
36,44:17
36,45:17
36,47:10
36,48:29
36,49:10
36,51:17
36,52:29
36,53:17
36,54:10
36,55:10
36,60:29
36,61:29
36,62:17
36,63:17
36,65:29
36,66:29
36,67:29
36,69:29
36,70:29
37,41:17
37,44:17
37,45:17
37,47:10
37,48:29
37,49:10
37,51:17
37,52:29
37,53:17
37,54:10
37,55:10
37,60:29
37,61:29
37,62:17
37,63:17
37,65:29
37,66:29
37,67:29
37,69:29
37,70:29
38,41:17
38,44:17
38,45:17
38,47:10
38,48:29
38,49:10
38,51:17
38,52:29
38,53:17
38,54:10
38,55:10
38,60:29
38,61:29
38,62:17
38,63:17
38,65:29
38,66:29
38,67:29
38,69:29
38,70:29
39,41:17
39,44:17
39,45:17
39,47:10
39,48:29
39,49:10
39,51:17
39,52:29
39,53:17
39,54:10
39,55:10
39,60:29
39,61:29
39,62:17
39,63:17
39,65:29
39,66:29
39,67:29
39,69:29
39,70:29
40,41:17
40,42:29
40,44:17
40,45:17
40,47:10
40,48:29
40,49:10
40,51:17
40,52:29
40,53:17
40,54:10
40,55:10
40,60:29
40,61:29
40,62:17
40,63:17
40,65:29
40,66:29
40,67:29
40,69:29
40,70:29
41,2:1
41,3:1
41,4:1
41,5:1
41,6:21
41,7:21
41,8:7
41,9:1
41,10:21
41,11:21
41,12:7
41,13:8
41,14:8
41,15:1
41,16:21
41,17:7
41,18:7
41,19:7
41,20:8
41,21:6
41,22:8
41,23:6
41,24:6
41,25:6
41,26:10
41,27:10
41,28:10
41,29:6
41,30:6
41,31:6
41,32:10
41,33:10
41,34:10
41,36:17
41,37:17
41,38:17
41,39:17
41,40:17
41,42:12
41,46:17
41,47:7
41,48:12
41,49:7
41,52:12
41,54:7
41,55:7
41,56:17
41,57:17
41,58:17
41,59:17
41,60:12
41,61:12
41,64:17
41,65:12
41,66:12
41,67:12
41,68:17
41,69:12
41,70:12
42,44:12
42,45:12
42,46:29
42,47:19
42,49:19
42,51:12
42,53:12
42,54:19
42,55:19
42,56:29
42,57:29
42,58:29
42,59:29
42,62:12
42,63:12
42,64:29
42,68:29
43,44:12
43,45:12
43,46:29
43,47:19
43,49:19
43,50:19
43,51:12
43,53:12
43,54:19
43,55:19
43,56:29
43,57:29
43,58:29
43,59:29
43,62:12
43,63:12
43,64:29
43,68:29
44,36:17
44,37:17
44,38:17
44,39:17
44,40:17
44,42:12
44,43:12
44,48:12
44,49:7
44,52:12
44,54:7
44,55:7
44,56:17
44,57:17
44,58:17
44,59:17
44,60:12
44,61:12
44,64:17
44,65:12
44,66:12
44,67:12
44,68:17
44,69:12
44,70:12
45,36:17
45,37:17
45,38:17
45,39:17
45,40:17
45,42:12
45,43:12
45,46:17
45,48:12
45,49:7
45,52:12
45,54:7
45,55:7
45,56:17
45,57:17
45,58:17
45,59:17
45,60:12
45,61:12
45,64:17
45,65:12
45,66:12
45,67:12
45,68:17
45,69:12
45,70:12
46,41:17
46,42:29
46,43:29
46,47:10
46,48:29
46,49:10
46,51:17
46,52:29
46,53:17
46,54:10
46,55:10
46,60:29
46,61:29
46,62:17
46,63:17
46,65:29
46,66:29
46,67:29
46,69:29
46,70:29
47,36:10
47,37:10
47,38:10
47,39:10
47,40:10
47,41:7
47,42:19
47,43:19
47,48:19
47,51:7
47,52:19
47,53:7
47,56:10
47,57:10
47,58:10
47,59:10
47,60:19
47,61:19
47,62:7
47,63:7
47,64:10
47,65:19
47,66:19
47,67:19
47,68:10
47,69:19
47,70:19
48,36:29
48,37:29
48,38:29
48,39:29
48,40:29
48,41:12
48,44:12
48,45:12
48,46:29
48,47:19
48,49:19
48,51:12
48,53:12
48,54:19
48,55:19
48,56:29
48,57:29
48,58:29
48,59:29
48,62:12
48,63:12
48,64:29
48,68:29
49,36:10
49,37:10
49,38:10
49,39:10
49,40:10
49,41:7
49,42:19
49,43:19
49,44:7
49,45:7
49,46:10
49,51:7
49,52:19
49,53:7
49,56:10
49,57:10
49,58:10
49,59:10
49,60:19
49,61:19
49,62:7
49,63:7
49,64:10
49,65:19
49,66:19
49,67:19
49,68:10
49,69:19
49,70:19
50,51:7
50,52:19
50,53:7
50,56:10
50,57:10
50,58:10
50,59:10
50,60:19
50,61:19
50,62:7
50,63:7
50,64:10
50,65:19
50,66:19
50,67:19
50,68:10
50,69:19
50,70:19
51,36:17
51,37:17
51,38:17
51,39:17
51,40:17
51,42:12
51,43:12
51,46:17
51,47:7
51,48:12
51,49:7
51,50:7
51,52:12
51,56:17
51,57:17
51,58:17
51,59:17
51,60:12
51,61:12
51,64:17
51,65:12
51,66:12
51,67:12
51,68:17
51,69:12
51,70:12
52,36:29
52,37:29
52,38:29
52,39:29
52,40:29
52,41:12
52,44:12
52,45:12
52,46:29
52,47:19
52,49:19
52,50:19
52,53:12
52,54:19
52,56:29
52,57:29
52,58:29
52,59:29
52,62:12
52,63:12
52,64:29
52,68:29
53,36:17
53,37:17
53,38:17
53,39:17
53,40:17
53,42:12
53,43:12
53,46:17
53,47:7
53,48:12
53,49:7
53,50:7
53,52:12
53,54:7
53,56:17
53,57:17
53,58:17
53,59:17
53,60:12
53,61:12
53,64:17
53,65:12
53,66:12
53,67:12
53,68:17
53,69:12
53,70:12
54,36:10
54,37:10
54,38:10
54,39:10
54,40:10
54,41:7
54,42:19
54,43:19
54,44:7
54,45:7
54,46:10
54,48:19
54,56:10
54,57:10
54,58:10
54,59:10
54,60:19
54,61:19
54,62:7
54,63:7
54,64:10
54,65:19
54,66:19
54,67:19
54,68:10
54,69:19
54,70:19
55,36:10
55,37:10
55,38:10
55,39:10
55,40:10
55,41:7
55,42:19
55,43:19
55,44:7
55,45:7
55,46:10
55,48:19
55,56:10
55,57:10
55,58:10
55,59:10
55,60:19
55,61:19
55,62:7
55,63:7
55,64:10
55,65:19
55,66:19
55,67:19
55,68:10
55,69:19
55,70:19
56,41:17
56,42:29
56,43:29
56,44:17
56,45:17
56,47:10
56,48:29
56,49:10
56,50:10
56,51:17
56,52:29
56,53:17
56,54:10
56,55:10
56,60:29
56,61:29
56,62:17
56,63:17
56,65:29
56,66:29
56,67:29
56,69:29
56,70:29
57,1:18
57,2:18
57,3:18
57,4:18
57,5:18
57,6:38
57,7:38
57,8:10
57,9:18
57,10:38
57,11:38
57,12:10
57,13:25
57,14:25
57,20:25
57,21:23
57,22:25
57,23:23
57,24:23
57,25:23
57,26:7
57,27:7
57,28:7
57,29:23
57,30:23
57,31:23
57,32:7
57,33:7
57,34:7
57,35:17
57,41:17
57,42:29
57,43:29
57,44:17
57,45:17
57,47:10
57,48:29
57,49:10
57,50:10
57,51:17
57,52:29
57,53:17
57,54:10
57,55:10
57,61:29
57,62:17
57,63:17
57,65:29
57,66:29
57,67:29
57,69:29
57,70:29
58,1:18
58,2:18
58,3:18
58,4:18
58,5:18
58,6:38
58,7:38
58,8:10
58,9:18
58,10:38
58,11:38
58,12:10
58,13:25
58,14:25
58,20:25
58,21:23
58,22:25
58,23:23
58,24:23
58,25:23
58,26:7
58,27:7
58,28:7
58,29:23
58,30:23
58,31:23
58,32:7
58,33:7
58,34:7
58,35:17
58,41:17
58,42:29
58,43:29
58,44:17
58,45:17
58,47:10
58,48:29
58,49:10
58,50:10
58,51:17
58,52:29
58,53:17
58,54:10
58,55:10
58,61:29
58,62:17
58,63:17
58,65:29
58,66:29
58,67:29
58,69:29
58,70:29
59,1:18
59,2:18
59,3:18
59,4:18
59,5:18
59,6:38
59,7:38
59,8:10
59,9:18
59,10:38
59,11:38
59,12:10
59,13:25
59,14:25
59,20:25
59,21:23
59,22:25
59,23:23
59,24:23
59,25:23
59,26:7
59,27:7
59,28:7
59,29:23
59,30:23
59,31:23
59,32:7
59,33:7
59,34:7
59,35:17
59,41:17
59,42:29
59,43:29
59,44:17
59,45:17
59,47:10
59,48:29
59,49:10
59,50:10
59,51:17
59,52:29
59,53:17
59,54:10
59,55:10
59,60:29
59,61:29
59,62:17
59,63:17
59,65:29
59,66:29
59,67:29
59,69:29
59,70:29
60,36:29
60,37:29
60,38:29
60,39:29
60,40:29
60,41:12
60,44:12
60,45:12
60,46:29
60,47:19
60,49:19
60,50:19
60,51:12
60,53:12
60,54:19
60,55:19
60,56:29
60,62:12
60,63:12
60,64:29
60,68:29
61,36:29
61,37:29
61,38:29
61,39:29
61,40:29
61,41:12
61,44:12
61,45:12
61,46:29
61,47:19
61,49:19
61,50:19
61,51:12
61,53:12
61,54:19
61,55:19
61,56:29
61,57:29
61,58:29
61,59:29
61,62:12
61,63:12
61,64:29
61,68:29
62,36:17
62,37:17
62,38:17
62,39:17
62,40:17
62,42:12
62,43:12
62,46:17
62,47:7
62,48:12
62,49:7
62,50:7
62,52:12
62,54:7
62,55:7
62,56:17
62,57:17
62,58:17
62,59:17
62,60:12
62,61:12
62,68:17
62,69:12
62,70:12
63,36:17
63,37:17
63,38:17
63,39:17
63,40:17
63,42:12
63,43:12
63,46:17
63,47:7
63,48:12
63,49:7
63,50:7
63,52:12
63,54:7
63,55:7
63,56:17
63,57:17
63,58:17
63,59:17
63,60:12
63,61:12
63,64:17
63,68:17
63,69:12
63,70:12
64,41:17
64,42:29
64,43:29
64,44:17
64,45:17
64,47:10
64,48:29
64,49:10
64,50:10
64,51:17
64,52:29
64,53:17
64,54:10
64,55:10
64,60:29
64,61:29
64,65:29
64,66:29
64,67:29
64,69:29
64,70:29
65,36:29
65,37:29
65,38:29
65,39:29
65,40:29
65,41:12
65,44:12
65,45:12
65,46:29
65,47:19
65,49:19
65,50:19
65,51:12
65,53:12
65,54:19
65,55:19
65,56:29
65,57:29
65,58:29
65,59:29
65,68:29
66,36:29
66,37:29
66,38:29
66,39:29
66,40:29
66,41:12
66,44:12
66,45:12
66,46:29
66,47:19
66,49:19
66,50:19
66,51:12
66,53:12
66,54:19
66,55:19
66,56:29
66,57:29
66,58:29
66,59:29
66,68:29
67,36:29
67,37:29
67,38:29
67,39:29
67,40:29
67,41:12
67,44:12
67,45:12
67,46:29
67,47:19
67,49:19
67,50:19
67,51:12
67,53:12
67,54:19
67,55:19
67,56:29
67,57:29
67,58:29
67,59:29
67,68:29
68,4:18
68,5:18
68,6:38
68,7:38
68,8:10
68,9:18
68,10:38
68,11:38
68,12:10
68,13:25
68,14:25
68,15:18
68,16:38
68,17:10
68,18:10
68,19:10
68,20:25
68,21:23
68,22:25
68,23:23
68,24:23
68,25:23
68,26:7
68,27:7
68,28:7
68,29:23
68,30:23
68,31:23
68,32:7
68,33:7
68,34:7
68,35:17
68,41:17
68,42:29
68,43:29
68,44:17
68,45:17
68,47:10
68,48:29
68,49:10
68,50:10
68,51:17
68,52:29
68,53:17
68,54:10
68,55:10
68,60:29
68,61:29
68,62:17
68,63:17
68,65:29
68,66:29
68,67:29
68,69:29
68,70:29
69,2:11
69,3:11
69,4:11
69,5:11
69,6:9
69,7:9
69,8:19
69,9:11
69,10:9
69,11:9
69,12:19
69,13:4
69,14:4
69,15:11
69,16:9
69,17:19
69,18:19
69,19:19
69,20:4
69,21:6
69,22:4
69,23:6
69,24:6
69,25:6
69,26:22
69,27:22
69,28:22
69,29:6
69,30:6
69,31:6
69,32:22
69,33:22
69,34:22
69,35:12
69,36:29
69,37:29
69,38:29
69,39:29
69,40:29
69,41:12
69,44:12
69,45:12
69,46:29
69,47:19
69,49:19
69,50:19
69,51:12
69,53:12
69,54:19
69,55:19
69,56:29
69,57:29
69,58:29
69,59:29
69,62:12
69,63:12
69,64:29
69,68:29
70,2:11
70,3:11
70,4:11
70,5:11
70,6:9
70,7:9
70,8:19
70,9:11
70,10:9
70,11:9
70,12:19
70,13:4
70,14:4
70,15:11
70,16:9
70,17:19
70,18:19
70,19:19
70,20:4
70,21:6
70,22:4
70,23:6
70,24:6
70,25:6
70,26:22
70,27:22
70,28:22
70,29:6
70,30:6
70,31:6
70,32:22
70,33:22
70,34:22
70,35:12
70,36:29
70,37:29
70,38:29
70,39:29
70,40:29
70,41:12
70,44:12
70,45:12
70,46:29
70,47:19
70,49:19
70,50:19
70,51:12
70,53:12
70,54:19
70,55:19
70,56:29
70,57:29
70,58:29
70,59:29
70,62:12
70,63:12
70,64:29
70,68:29

<setup times backward>
1,1:1
1,5:1
1,9:1
1,15:1
1,17:9
1,18:9
1,19:9
1,57:19
1,58:19
1,59:19
2,1:1
2,2:1
2,5:1
2,9:1
2,15:1
2,17:9
2,18:9
2,19:9
2,41:2
2,57:19
2,58:19
2,59:19
3,1:1
3,2:1
3,3:1
3,5:1
3,9:1
3,15:1
3,17:9
3,18:9
3,19:9
3,41:2
3,57:19
3,58:19
3,59:19
4,1:1
4,2:1
4,3:1
4,4:1
4,5:1
4,9:1
4,15:1
4,17:9
4,18:9
4,19:9
4,41:2
4,57:19
4,58:19
4,59:19
4,68:19
5,1:1
5,2:1
5,3:1
5,4:1
5,5:1
5,9:1
5,15:1
5,17:9
5,18:9
5,19:9
5,41:2
5,57:19
5,58:19
5,59:19
5,68:19
6,1:21
6,2:21
6,3:21
6,4:21
6,5:21
6,6:1
6,7:1
6,9:21
6,10:1
6,11:1
6,15:21
6,16:1
6,17:29
6,18:29
6,19:29
6,20:14
6,21:16
6,22:14
6,24:16
6,30:16
6,41:22
6,57:39
6,58:39
6,59:39
6,68:39
6,69:10
6,70:10
7,1:21
7,2:21
7,3:21
7,4:21
7,5:21
7,6:1
7,7:1
7,9:21
7,10:1
7,11:1
7,15:21
7,16:1
7,17:29
7,18:29
7,19:29
7,20:14
7,21:16
7,22:14
7,24:16
7,30:16
7,41:22
7,57:39
7,58:39
7,59:39
7,68:39
7,69:10
7,70:10
8,8:1
8,17:1
8,18:1
8,19:1
8,57:11
8,58:11
8,59:11
8,68:11
9,1:1
9,2:1
9,3:1
9,4:1
9,5:1
9,8:9
9,9:1
9,15:1
9,17:9
9,18:9
9,19:9
9,41:2
9,57:19
9,58:19
9,59:19
9,68:19
10,1:21
10,2:21
10,3:21
10,4:21
10,5:21
10,6:1
10,7:1
10,8:29
10,9:21
10,10:1
10,15:21
10,16:1
10,17:29
10,18:29
10,19:29
10,20:14
10,21:16
10,22:14
10,24:16
10,30:16
10,41:22
10,57:39
10,58:39
10,59:39
10,68:39
10,69:10
10,70:10
11,1:21
11,2:21
11,3:21
11,4:21
11,5:21
11,6:1
11,7:1
11,8:29
11,9:21
11,10:1
11,11:1
11,15:21
11,16:1
11,17:29
11,18:29
11,19:29
11,20:14
11,21:16
11,22:14
11,24:16
11,30:16
11,41:22
11,57:39
11,58:39
11,59:39
11,68:39
11,69:10
11,70:10
12,8:1
12,12:1
12,17:1
12,18:1
12,19:1
12,57:11
12,58:11
12,59:11
12,68:11
13,1:8
13,2:8
13,3:8
13,4:8
13,5:8
13,8:16
13,9:8
13,12:16
13,13:1
13,14:1
13,15:8
13,17:16
13,18:16
13,19:16
13,20:1
13,21:3
13,22:1
13,24:3
13,30:3
13,41:9
13,57:26
13,58:26
13,59:26
13,68:26
14,1:8
14,2:8
14,3:8
14,4:8
14,5:8
14,8:16
14,9:8
14,12:16
14,13:1
14,14:1
14,15:8
14,17:16
14,18:16
14,19:16
14,20:1
14,21:3
14,22:1
14,24:3
14,30:3
14,41:9
14,57:26
14,58:26
14,59:26
14,68:26
15,1:1
15,2:1
15,3:1
15,4:1
15,5:1
15,8:9
15,9:1
15,12:9
15,15:1
15,41:2
15,68:19
16,1:21
16,2:21
16,3:21
16,4:21
16,5:21
16,6:1
16,7:1
16,8:29
16,9:21
16,10:1
16,11:1
16,12:29
16,13:14
16,14:14
16,15:21
16,16:1
16,24:16
16,30:16
16,41:22
16,68:39
16,69:10
16,70:10
17,8:1
17,12:1
17,17:1
17,18:1
17,68:11
18,8:1
18,12:1
18,17:1
18,18:1
18,68:11
19,8:1
19,12:1
19,17:1
19,18:1
19,19:1
19,68:11
20,1:8
20,2:8
20,3:8
20,4:8
20,5:8
20,8:16
20,9:8
20,12:16
20,13:1
20,14:1
20,15:8
20,17:16
20,18:16
20,19:16
20,20:1
20,22:1
20,24:3
20,30:3
20,41:9
20,57:26
20,58:26
20,59:26
20,68:26
21,1:6
21,2:6
21,3:6
21,4:6
21,5:6
21,8:14
21,9:6
21,12:14
21,15:6
21,17:14
21,18:14
21,19:14
21,21:1
21,24:1
21,30:1
21,41:7
21,57:24
21,58:24
21,59:24
21,68:24
22,1:8
22,2:8
22,3:8
22,4:8
22,5:8
22,8:16
22,9:8
22,12:16
22,13:1
22,14:1
22,15:8
22,17:16
22,18:16
22,19:16
22,20:1
22,21:3
22,22:1
22,24:3
22,30:3
22,41:9
22,57:26
22,58:26
22,59:26
22,68:26
23,1:6
23,2:6
23,3:6
23,4:6
23,5:6
23,8:14
23,9:6
23,12:14
23,15:6
23,17:14
23,18:14
23,19:14
23,21:1
23,23:1
23,24:1
23,30:1
23,41:7
23,57:24
23,58:24
23,59:24
23,68:24
24,1:6
24,2:6
24,3:6
24,4:6
24,5:6
24,8:14
24,9:6
24,12:14
24,15:6
24,17:14
24,18:14
24,19:14
24,21:1
24,23:1
24,24:1
24,30:1
24,31:1
24,32:17
24,33:17
24,34:17
24,41:7
24,57:24
24,58:24
24,59:24
24,68:24
25,1:6
25,2:6
25,3:6
25,4:6
25,5:6
25,8:14
25,9:6
25,12:14
25,15:6
25,17:14
25,18:14
25,19:14
25,21:1
25,23:1
25,24:1
25,25:1
25,30:1
25,31:1
25,32:17
25,33:17
25,34:17
25,41:7
25,57:24
25,58:24
25,59:24
25,68:24
26,26:1
26,27:1
26,28:1
26,32:1
26,33:1
26,34:1
26,57:8
26,58:8
26,59:8
26,68:8
27,26:1
27,27:1
27,28:1
27,32:1
27,33:1
27,34:1
27,57:8
27,58:8
27,59:8
27,68:8
28,26:1
28,27:1
28,28:1
28,32:1
28,33:1
28,34:1
28,57:8
28,58:8
28,59:8
28,68:8
29,1:6
29,2:6
29,3:6
29,4:6
29,5:6
29,8:14
29,9:6
29,12:14
29,15:6
29,17:14
29,18:14
29,19:14
29,21:1
29,23:1
29,24:1
29,25:1
29,26:17
29,27:17
29,28:17
29,29:1
29,30:1
29,31:1
29,32:17
29,33:17
29,34:17
29,41:7
29,57:24
29,58:24
29,59:24
29,68:24
30,1:6
30,2:6
30,3:6
30,4:6
30,5:6
30,8:14
30,9:6
30,12:14
30,15:6
30,17:14
30,18:14
30,19:14
30,21:1
30,23:1
30,24:1
30,25:1
30,26:17
30,27:17
30,28:17
30,29:1
30,30:1
30,33:17
30,34:17
30,41:7
30,57:24
30,58:24
30,59:24
30,68:24
31,1:6
31,2:6
31,3:6
31,4:6
31,5:6
31,8:14
31,9:6
31,12:14
31,15:6
31,17:14
31,18:14
31,19:14
31,21:1
31,23:1
31,24:1
31,25:1
31,26:17
31,27:17
31,28:17
31,29:1
31,30:1
31,31:1
31,33:17
31,34:17
31,41:7
31,57:24
31,58:24
31,59:24
31,68:24
32,26:1
32,27:1
32,28:1
32,32:1
32,33:1
32,34:1
32,57:8
32,58:8
32,59:8
32,68:8
33,26:1
33,27:1
33,28:1
33,32:1
33,33:1
33,57:8
33,58:8
33,59:8
33,68:8
34,26:1
34,27:1
34,28:1
34,32:1
34,33:1
34,34:1
34,57:8
34,58:8
34,59:8
34,68:8
35,8:8
35,12:8
35,17:8
35,18:8
35,19:8
35,26:11
35,27:11
35,28:11
35,32:11
35,33:11
35,34:11
35,35:1
35,41:1
35,57:18
35,58:18
35,59:18
35,68:18
36,36:1
36,46:1
36,56:1
36,57:1
36,58:1
36,59:1
36,64:1
36,68:1
37,36:1
37,37:1
37,46:1
37,56:1
37,57:1
37,58:1
37,59:1
37,64:1
37,68:1
38,36:1
38,37:1
38,38:1
38,46:1
38,56:1
38,57:1
38,58:1
38,59:1
38,64:1
38,68:1
39,36:1
39,37:1
39,38:1
39,39:1
39,46:1
39,56:1
39,57:1
39,58:1
39,59:1
39,64:1
39,68:1
40,36:1
40,37:1
40,38:1
40,39:1
40,40:1
40,46:1
40,56:1
40,57:1
40,58:1
40,59:1
40,64:1
40,68:1
41,8:8
41,12:8
41,17:8
41,18:8
41,19:8
41,26:11
41,27:11
41,28:11
41,32:11
41,33:11
41,34:11
41,35:1
41,36:18
41,37:18
41,38:18
41,39:18
41,40:18
41,41:1
41,44:1
41,45:1
41,46:18
41,47:8
41,49:8
41,51:1
41,53:1
41,54:8
41,55:8
41,56:18
41,57:18
41,58:18
41,59:18
41,62:1
41,63:1
41,64:18
41,68:18
42,1:12
42,2:12
42,3:12
42,4:12
42,5:12
42,8:20
42,9:12
42,12:20
42,13:5
42,14:5
42,15:12
42,17:20
42,18:20
42,19:20
42,20:5
42,21:7
42,22:5
42,23:7
42,24:7
42,25:7
42,26:23
42,27:23
42,28:23
42,29:7
42,30:7
42,31:7
42,32:23
42,33:23
42,34:23
42,35:13
42,36:30
42,37:30
42,38:30
42,39:30
42,40:30
42,41:13
42,42:1
42,44:13
42,45:13
42,46:30
42,47:20
42,48:1
42,49:20
42,51:13
42,52:1
42,53:13
42,54:20
42,55:20
42,56:30
42,57:30
42,58:30
42,59:30
42,60:1
42,61:1
42,62:13
42,63:13
42,64:30
42,65:1
42,66:1
42,67:1
42,68:30
42,69:1
42,70:1
43,1:12
43,2:12
43,3:12
43,4:12
43,5:12
43,8:20
43,9:12
43,12:20
43,13:5
43,14:5
43,15:12
43,17:20
43,18:20
43,19:20
43,20:5
43,21:7
43,22:5
43,23:7
43,24:7
43,25:7
43,26:23
43,27:23
43,28:23
43,29:7
43,30:7
43,31:7
43,32:23
43,33:23
43,34:23
43,35:13
43,36:30
43,37:30
43,38:30
43,39:30
43,40:30
43,41:13
43,42:1
43,43:1
43,44:13
43,45:13
43,46:30
43,47:20
43,48:1
43,49:20
43,51:13
43,52:1
43,53:13
43,54:20
43,55:20
43,56:30
43,57:30
43,58:30
43,59:30
43,60:1
43,61:1
43,62:13
43,63:13
43,64:30
43,65:1
43,66:1
43,67:1
43,68:30
43,69:1
43,70:1
44,8:8
44,12:8
44,17:8
44,18:8
44,19:8
44,26:11
44,27:11
44,28:11
44,32:11
44,33:11
44,34:11
44,35:1
44,36:18
44,37:18
44,38:18
44,39:18
44,40:18
44,41:1
44,44:1
44,49:8
44,51:1
44,53:1
44,54:8
44,55:8
44,56:18
44,57:18
44,58:18
44,59:18
44,62:1
44,63:1
44,64:18
44,68:18
45,8:8
45,12:8
45,17:8
45,18:8
45,19:8
45,26:11
45,27:11
45,28:11
45,32:11
45,33:11
45,34:11
45,35:1
45,36:18
45,37:18
45,38:18
45,39:18
45,40:18
45,41:1
45,44:1
45,45:1
45,49:8
45,51:1
45,53:1
45,54:8
45,55:8
45,56:18
45,57:18
45,58:18
45,59:18
45,62:1
45,63:1
45,64:18
45,68:18
46,36:1
46,37:1
46,38:1
46,39:1
46,40:1
46,46:1
46,56:1
46,57:1
46,58:1
46,59:1
46,64:1
46,68:1
47,8:1
47,12:1
47,17:1
47,18:1
47,19:1
47,26:4
47,27:4
47,28:4
47,32:4
47,33:4
47,34:4
47,36:11
47,37:11
47,38:11
47,39:11
47,40:11
47,46:11
47,47:1
47,49:1
47,54:1
47,55:1
47,56:11
47,57:11
47,58:11
47,59:11
47,64:11
47,68:11
48,1:12
48,2:12
48,3:12
48,4:12
48,5:12
48,8:20
48,9:12
48,12:20
48,13:5
48,14:5
48,15:12
48,17:20
48,18:20
48,19:20
48,20:5
48,21:7
48,22:5
48,23:7
48,24:7
48,25:7
48,26:23
48,27:23
48,28:23
48,29:7
48,30:7
48,31:7
48,32:23
48,33:23
48,34:23
48,35:13
48,36:30
48,37:30
48,38:30
48,39:30
48,40:30
48,41:13
48,42:1
48,43:1
48,44:13
48,45:13
48,46:30
48,47:20
48,48:1
48,51:13
48,52:1
48,53:13
48,54:20
48,55:20
48,56:30
48,57:30
48,58:30
48,59:30
48,60:1
48,61:1
48,62:13
48,63:13
48,64:30
48,65:1
48,66:1
48,67:1
48,68:30
48,69:1
48,70:1
49,8:1
49,12:1
49,17:1
49,18:1
49,19:1
49,26:4
49,27:4
49,28:4
49,32:4
49,33:4
49,34:4
49,36:11
49,37:11
49,38:11
49,39:11
49,40:11
49,46:11
49,47:1
49,49:1
49,54:1
49,55:1
49,56:11
49,57:11
49,58:11
49,59:11
49,64:11
49,68:11
50,8:1
50,12:1
50,17:1
50,18:1
50,19:1
50,26:4
50,27:4
50,28:4
50,32:4
50,33:4
50,34:4
50,36:11
50,37:11
50,38:11
50,39:11
50,40:11
50,46:11
50,47:1
50,49:1
50,50:1
50,54:1
50,55:1
50,56:11
50,57:11
50,58:11
50,59:11
50,64:11
50,68:11
51,8:8
51,12:8
51,17:8
51,18:8
51,19:8
51,26:11
51,27:11
51,28:11
51,32:11
51,33:11
51,34:11
51,35:1
51,36:18
51,37:18
51,38:18
51,39:18
51,40:18
51,41:1
51,44:1
51,45:1
51,46:18
51,47:8
51,49:8
51,50:8
51,51:1
51,53:1
51,56:18
51,57:18
51,58:18
51,59:18
51,62:1
51,63:1
51,64:18
51,68:18
52,1:12
52,2:12
52,3:12
52,4:12
52,5:12
52,8:20
52,9:12
52,12:20
52,13:5
52,14:5
52,15:12
52,17:20
52,18:20
52,19:20
52,20:5
52,21:7
52,22:5
52,23:7
52,24:7
52,25:7
52,26:23
52,27:23
52,28:23
52,29:7
52,30:7
52,31:7
52,32:23
52,33:23
52,34:23
52,35:13
52,36:30
52,37:30
52,38:30
52,39:30
52,40:30
52,41:13
52,42:1
52,43:1
52,44:13
52,45:13
52,46:30
52,47:20
52,48:1
52,49:20
52,50:20
52,51:13
52,52:1
52,53:13
52,56:30
52,57:30
52,58:30
52,59:30
52,60:1
52,61:1
52,62:13
52,63:13
52,64:30
52,65:1
52,66:1
52,67:1
52,68:30
52,69:1
52,70:1
53,8:8
53,12:8
53,17:8
53,18:8
53,19:8
53,26:11
53,27:11
53,28:11
53,32:11
53,33:11
53,34:11
53,35:1
53,36:18
53,37:18
53,38:18
53,39:18
53,40:18
53,41:1
53,44:1
53,45:1
53,46:18
53,47:8
53,49:8
53,50:8
53,51:1
53,53:1
53,56:18
53,57:18
53,58:18
53,59:18
53,62:1
53,63:1
53,64:18
53,68:18
54,8:1
54,12:1
54,17:1
54,18:1
54,19:1
54,26:4
54,27:4
54,28:4
54,32:4
54,33:4
54,34:4
54,36:11
54,37:11
54,38:11
54,39:11
54,40:11
54,46:11
54,47:1
54,49:1
54,50:1
54,54:1
54,56:11
54,57:11
54,58:11
54,59:11
54,64:11
54,68:11
55,8:1
55,12:1
55,17:1
55,18:1
55,19:1
55,26:4
55,27:4
55,28:4
55,32:4
55,33:4
55,34:4
55,36:11
55,37:11
55,38:11
55,39:11
55,40:11
55,46:11
55,47:1
55,49:1
55,50:1
55,54:1
55,55:1
55,56:11
55,57:11
55,58:11
55,59:11
55,64:11
55,68:11
56,36:1
56,37:1
56,38:1
56,39:1
56,40:1
56,46:1
56,56:1
56,57:1
56,58:1
56,59:1
56,64:1
56,68:1
57,36:1
57,37:1
57,38:1
57,39:1
57,40:1
57,46:1
57,56:1
57,57:1
57,64:1
57,68:1
58,36:1
58,37:1
58,38:1
58,39:1
58,40:1
58,46:1
58,56:1
58,57:1
58,58:1
58,64:1
58,68:1
59,36:1
59,37:1
59,38:1
59,39:1
59,40:1
59,46:1
59,56:1
59,57:1
59,58:1
59,59:1
59,64:1
59,68:1
60,1:12
60,2:12
60,3:12
60,4:12
60,5:12
60,8:20
60,9:12
60,12:20
60,13:5
60,14:5
60,15:12
60,17:20
60,18:20
60,19:20
60,20:5
60,21:7
60,22:5
60,23:7
60,24:7
60,25:7
60,26:23
60,27:23
60,28:23
60,29:7
60,30:7
60,31:7
60,32:23
60,33:23
60,34:23
60,35:13
60,36:30
60,37:30
60,38:30
60,39:30
60,40:30
60,41:13
60,42:1
60,43:1
60,44:13
60,45:13
60,46:30
60,47:20
60,48:1
60,49:20
60,50:20
60,51:13
60,52:1
60,53:13
60,54:20
60,55:20
60,56:30
60,57:30
60,58:30
60,59:30
60,60:1
60,61:1
60,62:13
60,63:13
60,64:30
60,65:1
60,66:1
60,67:1
60,68:30
60,69:1
60,70:1
61,1:12
61,2:12
61,3:12
61,4:12
61,5:12
61,8:20
61,9:12
61,12:20
61,13:5
61,14:5
61,15:12
61,17:20
61,18:20
61,19:20
61,20:5
61,21:7
61,22:5
61,23:7
61,24:7
61,25:7
61,26:23
61,27:23
61,28:23
61,29:7
61,30:7
61,31:7
61,32:23
61,33:23
61,34:23
61,35:13
61,36:30
61,37:30
61,38:30
61,39:30
61,40:30
61,41:13
61,42:1
61,43:1
61,44:13
61,45:13
61,46:30
61,47:20
61,48:1
61,49:20
61,50:20
61,51:13
61,52:1
61,53:13
61,54:20
61,55:20
61,56:30
61,57:30
61,58:30
61,59:30
61,60:1
61,61:1
61,62:13
61,63:13
61,64:30
61,66:1
61,67:1
61,68:30
61,69:1
61,70:1
62,8:8
62,12:8
62,17:8
62,18:8
62,19:8
62,26:11
62,27:11
62,28:11
62,32:11
62,33:11
62,34:11
62,35:1
62,36:18
62,37:18
62,38:18
62,39:18
62,40:18
62,41:1
62,44:1
62,45:1
62,46:18
62,47:8
62,49:8
62,50:8
62,51:1
62,53:1
62,54:8
62,55:8
62,56:18
62,57:18
62,58:18
62,59:18
62,62:1
62,68:18
63,8:8
63,12:8
63,17:8
63,18:8
63,19:8
63,26:11
63,27:11
63,28:11
63,32:11
63,33:11
63,34:11
63,35:1
63,36:18
63,37:18
63,38:18
63,39:18
63,40:18
63,41:1
63,44:1
63,45:1
63,46:18
63,47:8
63,49:8
63,50:8
63,51:1
63,53:1
63,54:8
63,55:8
63,56:18
63,57:18
63,58:18
63,59:18
63,62:1
63,63:1
63,68:18
64,36:1
64,37:1
64,38:1
64,39:1
64,40:1
64,46:1
64,56:1
64,57:1
64,58:1
64,59:1
64,64:1
64,68:1
65,1:12
65,2:12
65,3:12
65,4:12
65,5:12
65,8:20
65,9:12
65,12:20
65,13:5
65,14:5
65,15:12
65,17:20
65,18:20
65,19:20
65,20:5
65,21:7
65,22:5
65,23:7
65,24:7
65,25:7
65,26:23
65,27:23
65,28:23
65,29:7
65,30:7
65,31:7
65,32:23
65,33:23
65,34:23
65,35:13
65,36:30
65,37:30
65,38:30
65,39:30
65,40:30
65,41:13
65,42:1
65,43:1
65,44:13
65,45:13
65,46:30
65,47:20
65,48:1
65,49:20
65,50:20
65,51:13
65,52:1
65,53:13
65,54:20
65,55:20
65,56:30
65,57:30
65,58:30
65,59:30
65,60:1
65,61:1
65,62:13
65,63:13
65,64:30
65,65:1
65,66:1
65,67:1
65,68:30
65,69:1
65,70:1
66,1:12
66,2:12
66,3:12
66,4:12
66,5:12
66,8:20
66,9:12
66,12:20
66,13:5
66,14:5
66,15:12
66,17:20
66,18:20
66,19:20
66,20:5
66,21:7
66,22:5
66,23:7
66,24:7
66,25:7
66,26:23
66,27:23
66,28:23
66,29:7
66,30:7
66,31:7
66,32:23
66,33:23
66,34:23
66,35:13
66,36:30
66,37:30
66,38:30
66,39:30
66,40:30
66,41:13
66,42:1
66,43:1
66,44:13
66,45:13
66,46:30
66,47:20
66,48:1
66,49:20
66,50:20
66,51:13
66,52:1
66,53:13
66,54:20
66,55:20
66,56:30
66,57:30
66,58:30
66,59:30
66,60:1
66,61:1
66,62:13
66,63:13
66,64:30
66,65:1
66,66:1
66,67:1
66,68:30
66,69:1
66,70:1
67,1:12
67,2:12
67,3:12
67,4:12
67,5:12
67,8:20
67,9:12
67,12:20
67,13:5
67,14:5
67,15:12
67,17:20
67,18:20
67,19:20
67,20:5
67,21:7
67,22:5
67,23:7
67,24:7
67,25:7
67,26:23
67,27:23
67,28:23
67,29:7
67,30:7
67,31:7
67,32:23
67,33:23
67,34:23
67,35:13
67,36:30
67,37:30
67,38:30
67,39:30
67,40:30
67,41:13
67,42:1
67,43:1
67,44:13
67,45:13
67,46:30
67,47:20
67,48:1
67,49:20
67,50:20
67,51:13
67,52:1
67,53:13
67,54:20
67,55:20
67,56:30
67,57:30
67,58:30
67,59:30
67,60:1
67,61:1
67,62:13
67,63:13
67,64:30
67,65:1
67,66:1
67,67:1
67,68:30
67,69:1
67,70:1
68,36:1
68,37:1
68,38:1
68,39:1
68,40:1
68,46:1
68,56:1
68,57:1
68,58:1
68,59:1
68,64:1
68,68:1
69,1:12
69,2:12
69,3:12
69,4:12
69,5:12
69,8:20
69,9:12
69,12:20
69,13:5
69,14:5
69,15:12
69,17:20
69,18:20
69,19:20
69,20:5
69,21:7
69,22:5
69,23:7
69,24:7
69,25:7
69,26:23
69,27:23
69,28:23
69,29:7
69,30:7
69,31:7
69,32:23
69,33:23
69,34:23
69,35:13
69,36:30
69,37:30
69,38:30
69,39:30
69,40:30
69,41:13
69,42:1
69,43:1
69,44:13
69,45:13
69,46:30
69,47:20
69,48:1
69,49:20
69,50:20
69,51:13
69,52:1
69,53:13
69,54:20
69,55:20
69,56:30
69,57:30
69,58:30
69,59:30
69,60:1
69,61:1
69,62:13
69,63:13
69,64:30
69,65:1
69,66:1
69,67:1
69,68:30
69,69:1
69,70:1
70,1:12
70,2:12
70,3:12
70,4:12
70,5:12
70,8:20
70,9:12
70,12:20
70,13:5
70,14:5
70,15:12
70,17:20
70,18:20
70,19:20
70,20:5
70,21:7
70,22:5
70,23:7
70,24:7
70,25:7
70,26:23
70,27:23
70,28:23
70,29:7
70,30:7
70,31:7
70,32:23
70,33:23
70,34:23
70,35:13
70,36:30
70,37:30
70,38:30
70,39:30
70,40:30
70,41:13
70,42:1
70,43:1
70,44:13
70,45:13
70,46:30
70,47:20
70,48:1
70,49:20
70,50:20
70,51:13
70,52:1
70,53:13
70,54:20
70,55:20
70,56:30
70,57:30
70,58:30
70,59:30
70,60:1
70,61:1
70,62:13
70,63:13
70,64:30
70,65:1
70,66:1
70,67:1
70,68:30
70,69:1
70,70:1

<end>

<optimal SALBP-1 value>
10


<rand seed>
467321153

